Ag 
1.0
 +8.7953996658  +0.0000000000  +0.0000000000 
 -4.3976998329  +7.6170395472  +0.0000000000 
 +0.0000000000  +0.0000000000 +19.1814002991 
Ag
 36
Direct
 +0.0000000000  +0.0000000000  +0.0000000000 
 +0.0000000000  +0.3333333333  +0.0000000000 
 +0.0000000000  +0.6666666667  +0.0000000000 
 +0.3333333333  +0.0000000000  +0.0000000000 
 +0.3333333333  +0.3333333333  +0.0000000000 
 +0.3333333333  +0.6666666667  +0.0000000000 
 +0.6666666667  +0.0000000000  +0.0000000000 
 +0.6666666667  +0.3333333333  +0.0000000000 
 +0.6666666667  +0.6666666667  +0.0000000000 
 +0.1111133300  +0.2222200033  +0.1247999970 
 +0.1111133300  +0.5555533367  +0.1247999970 
 +0.1111133300  +0.8888866700  +0.1247999970 
 +0.4444466633  +0.2222200033  +0.1247999970 
 +0.4444466633  +0.5555533367  +0.1247999970 
 +0.4444466633  +0.8888866700  +0.1247999970 
 +0.7777799967  +0.2222200033  +0.1247999970 
 +0.7777799967  +0.5555533367  +0.1247999970 
 +0.7777799967  +0.8888866700  +0.1247999970 
 +0.2222164113  +0.1111169220  +0.2462100232 
 +0.2222164113  +0.4444502553  +0.2462100232 
 +0.2222164113  +0.7777835887  +0.2462100232 
 +0.5555497447  +0.1111169220  +0.2462100232 
 +0.5555497447  +0.4444502553  +0.2462100232 
 +0.5555497447  +0.7777835887  +0.2462100232 
 +0.8888830780  +0.1111169220  +0.2462100232 
 +0.8888830780  +0.4444502553  +0.2462100232 
 +0.8888830780  +0.7777835887  +0.2462100232 
 -0.0000002375  +0.0000002375  +0.3690485583 
 -0.0000002375  +0.3333335708  +0.3690485583 
 -0.0000002375  +0.6666669042  +0.3690485583 
 +0.3333330958  +0.0000002375  +0.3690485583 
 +0.3333330958  +0.3333335708  +0.3690485583 
 +0.3333330958  +0.6666669042  +0.3690485583 
 +0.6666664292  +0.0000002375  +0.3690485583 
 +0.6666664292  +0.3333335708  +0.3690485583 
 +0.6666664292  +0.6666669042  +0.3690485583 
