InPd2
1.0
        8.3929004669         0.0000000000         0.0000000000
        0.0020014715         7.1235997249         0.0000000000
        0.0000000000         0.0000000000        16.3239994049
   In   Pd
    8   16
Selective
Cartesian
3.347595481 3.596206869 0.000000000 F F F
7.546275114 1.672407507 1.212873133 F F F
0.843296471 5.895419816 1.702429916 F F F
5.039458972 3.974398610 2.917261913 F F F
3.347558354 1.073740179 3.406818696 T T T
7.548239208 6.273540648 4.619528732 T T T
0.843259156 3.372953232 5.109085272 T T T
5.039421594 1.451932132 6.324080852 T T T
0.603982778 3.690096038 0.069540235 F F F
6.125871535 4.102338546 0.374799022 F F F
1.931197830 1.164494847 0.836768181 F F F
4.800930688 1.578589671 1.143332959 F F F
3.588641302 5.992015807 1.773929076 F F F
6.458373535 6.404330073 2.079187802 F F F
2.262020806 3.464562726 2.539687813 F F F
7.783909949 3.877731710 2.845762753 F F F
0.603945463 1.167629242 3.476358992 T T T
6.125834658 1.579871962 3.781454378 T T T
1.933162049 5.765627776 4.243423841 T T T
4.802894782 6.179722812 4.550151411 T T T
3.588687968 3.469549224 5.180747650 T T T
6.458336657 3.881863064 5.486006498 T T T
2.261983429 0.942096036 5.946506265 T T T
7.783872571 1.355264808 6.252418474 T T T
