InPd2
1.0
        7.1236000061         0.0000000000         0.0000000000
       -2.5248421355         9.0573697870         0.0000000000
        0.0000000000         0.0000000000        16.1858997345
   In   Pd
    8   16
Selective
Cartesian
-0.852621859 7.828103428 0.969211670 F F F
1.072376552 3.486181664 1.422740552 F F F
3.973455919 1.735210882 1.605317504 F F F
3.370862874 6.447488570 2.058037137 F F F
6.273350228 0.051536434 4.126109654 T T T
5.673506694 4.766984534 4.579638476 T T T
1.451011339 3.015923054 4.762215428 T T T
0.848321965 7.728291169 5.214773224 T T T
5.990686988 2.649914633 0.000000000 F F F
3.462878482 4.166571301 0.210902274 F F F
1.165459582 6.054489512 0.455147499 F F F
6.403736526 0.105880653 1.362205323 F F F
-1.359828257 5.112704158 1.665529057 F F F
1.352754367 8.222733406 2.571291999 F F F
1.579256259 1.053009808 2.815051772 F F F
6.178689883 2.569123038 3.029029322 F F F
3.468217199 3.930717232 3.156897924 T T T
0.940362432 5.447283204 3.367800078 T T T
-1.357010312 7.335292112 3.612045363 T T T
3.881266724 1.386683304 4.519103006 T T T
3.241327310 6.393416061 4.822426740 T T T
1.355152016 0.446075455 5.728189682 T T T
6.180386496 2.333812340 5.971787858 T T T
3.656219670 3.849925638 6.185927247 T T T
