InPd2                                   
   1.00000000000000     
     7.1236000061000002    0.0000000000000000    0.0000000000000000
    -2.5248421355000001    9.0573697870000007    0.0000000000000000
     0.0000000000000000    0.0000000000000000   16.1858997345000013
   In   Pd
     8    16
Selective dynamics
Direct
  0.1866399943949730  0.8642799854805148  0.0598799996230142   F   F   F
  0.2869600058113946  0.3849000036416399  0.0878999978584716   F   F   F
  0.6256899833549312  0.1915799975938413  0.0991799980435033   F   F   F
  0.7254999876838539  0.7118499875376685  0.1271499991201210   F   F   F
  0.8690034448385937  0.0000854201163365  0.2600268316293264   T   T   T
  0.9843645673026920  0.5353283014732890  0.2835880283669491   T   T   T
  0.3198093336951093  0.3445450020358420  0.2997728618393073   T   T   T
  0.4219204752068717  0.8519668262443911  0.3258380953604585   T   T   T
  0.9446600080175998  0.2925699949673515  0.0000000000000000   F   F   F
  0.6491600274569791  0.4600200056952772  0.0130300000283867   F   F   F
  0.4005300104574872  0.6684600115024537  0.0281199999052149   F   F   F
  0.9030900001555509  0.0116900000209768  0.0841600000830667   F   F   F
  0.0091800000692785  0.5644800066944669  0.1028999984134273   F   F   F
  0.5116699933816165  0.9078500270356713  0.1588599979721437   F   F   F
  0.2628999948216588  0.1162599996205742  0.1739200055712544   F   F   F
  0.9678900241627844  0.2836500108108027  0.1871400028225594   F   F   F
  0.6307686373524145  0.4343677812664222  0.1918900419561752   T   T   T
  0.3409002821387778  0.6058776080017485  0.2112204434382846   T   T   T
  0.0968263241523550  0.8123121025902013  0.2262643783846912   T   T   T
  0.5923825845680517  0.1516297606459549  0.2762168807496424   T   T   T
  0.6994536720213668  0.7018297461470523  0.2953873826947604   T   T   T
  0.2089327461528977  0.0530381344781387  0.3420836000979107   T   T   T
  0.9558140217949926  0.2559585000817418  0.3558893410665611   T   T   T
  0.6700662000697226  0.4108350792708231  0.3673373544207630   T   T   T
 
  0.00000000E+00  0.00000000E+00  0.00000000E+00
  0.00000000E+00  0.00000000E+00  0.00000000E+00
  0.00000000E+00  0.00000000E+00  0.00000000E+00
  0.00000000E+00  0.00000000E+00  0.00000000E+00
  0.00000000E+00  0.00000000E+00  0.00000000E+00
  0.00000000E+00  0.00000000E+00  0.00000000E+00
  0.00000000E+00  0.00000000E+00  0.00000000E+00
  0.00000000E+00  0.00000000E+00  0.00000000E+00
  0.00000000E+00  0.00000000E+00  0.00000000E+00
  0.00000000E+00  0.00000000E+00  0.00000000E+00
  0.00000000E+00  0.00000000E+00  0.00000000E+00
  0.00000000E+00  0.00000000E+00  0.00000000E+00
  0.00000000E+00  0.00000000E+00  0.00000000E+00
  0.00000000E+00  0.00000000E+00  0.00000000E+00
  0.00000000E+00  0.00000000E+00  0.00000000E+00
  0.00000000E+00  0.00000000E+00  0.00000000E+00
  0.00000000E+00  0.00000000E+00  0.00000000E+00
  0.00000000E+00  0.00000000E+00  0.00000000E+00
  0.00000000E+00  0.00000000E+00  0.00000000E+00
  0.00000000E+00  0.00000000E+00  0.00000000E+00
  0.00000000E+00  0.00000000E+00  0.00000000E+00
  0.00000000E+00  0.00000000E+00  0.00000000E+00
  0.00000000E+00  0.00000000E+00  0.00000000E+00
  0.00000000E+00  0.00000000E+00  0.00000000E+00
