Ag 
1.0
 +8.7954187905  +0.0000000000  +0.0000000000 
 +0.0000000000  +8.7954187905  +0.0000000000 
 +0.0000000000  +0.0000000000 +18.2192993164 
Ag
 36
Direct
 +0.1666666667  +0.1666666667  +0.0000000000 
 +0.1666666667  +0.5000000000  +0.0000000000 
 +0.1666666667  +0.8333333333  +0.0000000000 
 +0.5000000000  +0.1666666667  +0.0000000000 
 +0.5000000000  +0.5000000000  +0.0000000000 
 +0.5000000000  +0.8333333333  +0.0000000000 
 +0.8333333333  +0.1666666667  +0.0000000000 
 +0.8333333333  +0.5000000000  +0.0000000000 
 +0.8333333333  +0.8333333333  +0.0000000000 
 +0.0000000000  +0.0000000000  +0.1137899980 
 +0.0000000000  +0.3333333333  +0.1137899980 
 +0.0000000000  +0.6666666667  +0.1137899980 
 +0.3333333333  +0.0000000000  +0.1137899980 
 +0.3333333333  +0.3333333333  +0.1137899980 
 +0.3333333333  +0.6666666667  +0.1137899980 
 +0.6666666667  +0.0000000000  +0.1137899980 
 +0.6666666667  +0.3333333333  +0.1137899980 
 +0.6666666667  +0.6666666667  +0.1137899980 
 +0.1666666667  +0.1666666667  +0.2270182782 
 +0.1666666667  +0.5000000000  +0.2270182782 
 +0.1666666667  +0.8333333333  +0.2270182782 
 +0.5000000000  +0.1666666667  +0.2270182782 
 +0.5000000000  +0.5000000000  +0.2270182782 
 +0.5000000000  +0.8333333333  +0.2270182782 
 +0.8333333333  +0.1666666667  +0.2270182782 
 +0.8333333333  +0.5000000000  +0.2270182782 
 +0.8333333333  +0.8333333333  +0.2270182782 
 +0.0000000000  +0.0000000000  +0.3383993010 
 +0.0000000000  +0.3333333333  +0.3383993010 
 +0.0000000000  +0.6666666667  +0.3383993010 
 +0.3333333333  +0.0000000000  +0.3383993010 
 +0.3333333333  +0.3333333333  +0.3383993010 
 +0.3333333333  +0.6666666667  +0.3383993010 
 +0.6666666667  +0.0000000000  +0.3383993010 
 +0.6666666667  +0.3333333333  +0.3383993010 
 +0.6666666667  +0.6666666667  +0.3383993010 
