Ag 
1.0
+10.5707502365  +0.0000000000  +0.0000000000 
 -1.2197047200  +8.7104176524  +0.0000000000 
 +0.0000000000  +0.0000000000 +20.7087001801 
Ag
 48
Direct
 +0.1176400040  +0.0196066673  +0.0000000000 
 +0.1176400040  +0.3529400007  +0.0000000000 
 +0.1176400040  +0.6862733340  +0.0000000000 
 +0.8431400060  +0.3071866633  +0.0280399990 
 +0.8431400060  +0.6405199967  +0.0280399990 
 +0.8431400060  +0.9738533300  +0.0280399990 
 +0.5686200260  +0.2614399987  +0.0560700000 
 +0.5686200260  +0.5947733320  +0.0560700000 
 +0.5686200260  +0.9281066653  +0.0560700000 
 +0.2941200140  +0.2156866593  +0.0841099990 
 +0.2941200140  +0.5490199927  +0.0841099990 
 +0.2941200140  +0.8823533260  +0.0841099990 
 +0.0196000000  +0.1699333387  +0.1121400000 
 +0.0196000000  +0.5032666720  +0.1121400000 
 +0.0196000000  +0.8366000053  +0.1121400000 
 +0.7451000220  +0.1241799993  +0.1401800070 
 +0.7451000220  +0.4575133327  +0.1401800070 
 +0.7451000220  +0.7908466660  +0.1401800070 
 +0.4705800120  +0.0784333347  +0.1682100000 
 +0.4705800120  +0.4117666680  +0.1682100000 
 +0.4705800120  +0.7451000013  +0.1682100000 
 +0.1960800000  +0.0326800000  +0.1962500070 
 +0.1960800000  +0.3660133333  +0.1962500070 
 +0.1960800000  +0.6993466667  +0.1962500070 
 +0.9213066540  +0.3203606807  +0.2237042131 
 +0.9213066540  +0.6536940140  +0.2237042131 
 +0.9213066540  +0.9870273474  +0.2237042131 
 +0.6499911819  +0.2754841506  +0.2522016210 
 +0.6499911819  +0.6088174839  +0.2522016210 
 +0.6499911819  +0.9421508173  +0.2522016210 
 +0.3733251975  +0.2293048425  +0.2788434015 
 +0.3733251975  +0.5626381758  +0.2788434015 
 +0.3733251975  +0.8959715092  +0.2788434015 
 +0.0981230935  +0.1832089801  +0.3062305561 
 +0.0981230935  +0.5165423134  +0.3062305561 
 +0.0981230935  +0.8498756468  +0.3062305561 
 +0.8197956639  +0.1365664650  +0.3383799147 
 +0.8197956639  +0.4698997983  +0.3383799147 
 +0.8197956639  +0.8032331317  +0.3383799147 
 +0.5461732910  +0.0920305703  +0.3606212381 
 +0.5461732910  +0.4253639036  +0.3606212381 
 +0.5461732910  +0.7586972370  +0.3606212381 
 +0.2759997224  +0.0470312226  +0.3882210497 
 +0.2759997224  +0.3803645559  +0.3882210497 
 +0.2759997224  +0.7136978892  +0.3882210497 
 +0.0050038473  +0.0009802945  +0.4136452578 
 +0.0050038473  +0.3343136278  +0.4136452578 
 +0.0050038473  +0.6676469612  +0.4136452578 
