InPd2
1.0
 +8.4779996872  +0.0000000000  +0.0000000000 
 +0.0000000000  +8.3929004669  +0.0000000000 
 +0.0000000000  +0.0000000000 +14.9492998123 
In Pd
 8 16
Selective
Cartesian
 +3.1792498830  +5.0374188390  +0.6342987690  F F F
 +1.0597499610  +0.8413043390  +1.4553143570  F F F
 +3.1792498830  +7.5462244430  +3.4951462060  T T T
 +1.0597499610  +3.3475923430  +4.3196001240  T T T
 +7.4182497266  +5.0374188390  +0.6342987690  F F F
 +5.2987498046  +0.8413043390  +1.4553143570  F F F
 +7.4182497266  +7.5462244430  +3.4951462060  T T T
 +5.2987498046  +3.3475923430  +4.3196001240  T T T
 +3.1792498830  +2.2600401250  +0.0000000000  F F F
 +3.1792498830  +7.7818974750  +0.5141064020  F F F
 +1.0597499610  +3.5866220930  +1.5755066680  F F F
 +1.0597499610  +6.4563225230  +2.0885665900  F F F
 +3.1792498830  +1.9312064470  +2.8630899820  T T T
 +3.1792498830  +4.8009068770  +3.3783922260  T T T
 +1.0597499610  +0.6039531360  +4.4363541050  T T T
 +1.0597499610  +6.1258099860  +4.9492647770  T T T
 +7.4182497266  +2.2600401250  +0.0000000000  F F F
 +7.4182497266  +7.7818974750  +0.5141064020  F F F
 +5.2987498046  +3.5866220930  +1.5755066680  F F F
 +5.2987498046  +6.4563225230  +2.0885665900  F F F
 +7.4182497266  +1.9312064470  +2.8630899820  T T T
 +7.4182497266  +4.8009068770  +3.3783922260  T T T
 +5.2987498046  +0.6039531360  +4.4363541050  T T T
 +5.2987498046  +6.1258099860  +4.9492647770  T T T
