C  O                                    
1.0
+15.0000000000  +0.0000000000  +0.0000000000 
 +0.0000000000 +15.0000000000  +0.0000000000 
 +0.0000000000  +0.0000000000 +15.0000000000 
C O
 1 1
Selective
Cartesian
 +7.5000000000  +7.5000000000  +6.3565212870  T T T
 +7.5000000000  +7.5000000000  +7.5000000000  T T T
