InPd2                                   
1.0
 +8.3929004669  +0.0000000000  +0.0000000000 
 +0.0039962028 +11.4501993836  +0.0000000000 
 +0.0000000000  +0.0000000000 +16.3584995270 
In Pd
 16 32
Selective
Cartesian
 +4.1966715232  +0.6340547737  +0.0000000000  F F F
 +6.7054685669  +3.4948872729  +0.0000000000  F F F
 +0.0005078175  +1.4550341038  +2.1195708982  F F F
 +2.5067882654  +4.3193015942  +2.1195708982  F F F
 +4.2025317984  +0.6436222718  +4.2355144775  T T T
 +6.6970689529  +3.5055548397  +4.2359483703  T T T
 -0.1091837876  +1.5438673590  +6.4570856227  T T T
 +2.6242791526  +4.4073736653  +6.4564790741  T T T
 +4.1986696246  +6.3591544655  +0.0000000000  F F F
 +6.7074666683  +9.2199869647  +0.0000000000  F F F
 +0.0025059189  +7.1801337956  +2.1195708982  F F F
 +2.5087863668 +10.0444012860  +2.1195708982  F F F
 +4.2045298998  +6.3687219636  +4.2355144775  T T T
 +6.6990670543  +9.2306545315  +4.2359483703  T T T
 -0.1071856862  +7.2689670508  +6.4570856227  T T T
 +2.6262772540 +10.1324733571  +6.4564790741  T T T
 +1.0903976900  +2.8628361467  +0.0000000000  F F F
 +1.4212374788  +5.7248133910  +0.0000000000  F F F
 +3.9601102390  +3.3780949701  +0.0000000000  F F F
 +6.9411082004  +0.5138276916  +0.0000000000  F F F
 +2.7458675959  +1.5752611859  +2.1195708982  F F F
 +5.2850578676  +4.9490623026  +2.1195708982  F F F
 +5.6155794716  +2.0882301011  +2.1195708982  F F F
 +8.1560902890  +4.4360935592  +2.1195708982  F F F
 +1.0829028747  +2.8547811089  +4.2460261058  T T T
 +1.4226198016  +5.7169747597  +4.2473084125  T T T
 +3.9272570000  +3.3911511412  +4.2365284002  T T T
 +6.9732366911  +0.5296855456  +4.2390057919  T T T
 +2.6533968686  +1.6140310481  +6.2595002190  T T T
 +5.3430181126  +4.9780709213  +6.2519020379  T T T
 +5.5640378601  +2.1138775356  +6.2520519161  T T T
 +8.2557014287  +4.4752812139  +6.2601128415  T T T
 +1.0923957914  +8.5879358385  +0.0000000000  F F F
 +1.4232355802 +11.4499130828  +0.0000000000  F F F
 +3.9621083404  +9.1031946619  +0.0000000000  F F F
 +6.9431063018  +6.2389273834  +0.0000000000  F F F
 +2.7478656973  +7.3003608777  +2.1195708982  F F F
 +5.2870559690 +10.6741619944  +2.1195708982  F F F
 +5.6175775730  +7.8133297929  +2.1195708982  F F F
 +8.1580883904 +10.1611932510  +2.1195708982  F F F
 +1.0849009761  +8.5798808007  +4.2460261058  T T T
 +1.4246179030 +11.4420744515  +4.2473084125  T T T
 +3.9292551014  +9.1162508330  +4.2365284002  T T T
 +6.9752347925  +6.2547852374  +4.2390057919  T T T
 +2.6553949700  +7.3391307399  +6.2595002190  T T T
 +5.3450162140 +10.7031706131  +6.2519020379  T T T
 +5.5660359615  +7.8389772274  +6.2520519161  T T T
 +8.2576995301 +10.2003809057  +6.2601128415  T T T
