InPd2                                   
   1.00000000000000     
     8.3929004669000005    0.0000000000000000    0.0000000000000000
     0.0020014715000000    7.1235997249000000    0.0000000000000000
     0.0000000000000000    0.0000000000000000   16.3239994049000003
   In   Pd
     8    16
Selective dynamics
Direct
  0.3987399935618612  0.5048300027905483  0.0000000000000000   F   F   F
  0.8990700245159928  0.2347699999417756  0.0742999986042605   F   F   F
  0.1002800017161150  0.8275899887233962  0.1042900011065271   F   F   F
  0.6003100276159259  0.5579199791515208  0.1787099987350089   F   F   F
  0.4005804539936274  0.1463555843457251  0.2058715339237178   T   T   T
  0.9028388266623681  0.8653565371063680  0.2868416786407586   T   T   T
  0.1075634809818263  0.4724741849201345  0.3185164863937296   T   T   T
  0.5944818251615471  0.1962675371175066  0.3823694012499875   T   T   T
  0.0718400031175861  0.5180100202853239  0.0042599998490047   F   F   F
  0.7297499775870264  0.5758799910753822  0.0229599997343470   F   F   F
  0.2300599961918905  0.1634699999958755  0.0512599982544018   F   F   F
  0.5719699859250937  0.2215999960640929  0.0700400024920853   F   F   F
  0.4273799955596544  0.8411499857376015  0.1086700037165826   F   F   F
  0.7692899704317000  0.8990300298056013  0.1273699998651026   F   F   F
  0.2694000005425039  0.4863499999712033  0.1555799991169877   F   F   F
  0.9273099899881814  0.5443500280406965  0.1743299961249534   F   F   F
  0.0727843348543459  0.1555732490080161  0.2114829806541036   T   T   T
  0.7318919950879361  0.2121457004655345  0.2275039303195000   T   T   T
  0.2317867381537022  0.8039154583760313  0.2620566414319420   T   T   T
  0.5687813430584105  0.8655309320701924  0.2862678845843891   T   T   T
  0.4303141758675978  0.4920545114333703  0.3138228017761820   T   T   T
  0.7671177881437180  0.5341458342746532  0.3280595703710087   T   T   T
  0.2713535496154553  0.1382548788078763  0.3545170228462501   T   T   T
  0.9198159217258632  0.1891603568452155  0.3675674741238537   T   T   T
 
  0.00000000E+00  0.00000000E+00  0.00000000E+00
  0.00000000E+00  0.00000000E+00  0.00000000E+00
  0.00000000E+00  0.00000000E+00  0.00000000E+00
  0.00000000E+00  0.00000000E+00  0.00000000E+00
  0.00000000E+00  0.00000000E+00  0.00000000E+00
  0.00000000E+00  0.00000000E+00  0.00000000E+00
  0.00000000E+00  0.00000000E+00  0.00000000E+00
  0.00000000E+00  0.00000000E+00  0.00000000E+00
  0.00000000E+00  0.00000000E+00  0.00000000E+00
  0.00000000E+00  0.00000000E+00  0.00000000E+00
  0.00000000E+00  0.00000000E+00  0.00000000E+00
  0.00000000E+00  0.00000000E+00  0.00000000E+00
  0.00000000E+00  0.00000000E+00  0.00000000E+00
  0.00000000E+00  0.00000000E+00  0.00000000E+00
  0.00000000E+00  0.00000000E+00  0.00000000E+00
  0.00000000E+00  0.00000000E+00  0.00000000E+00
  0.00000000E+00  0.00000000E+00  0.00000000E+00
  0.00000000E+00  0.00000000E+00  0.00000000E+00
  0.00000000E+00  0.00000000E+00  0.00000000E+00
  0.00000000E+00  0.00000000E+00  0.00000000E+00
  0.00000000E+00  0.00000000E+00  0.00000000E+00
  0.00000000E+00  0.00000000E+00  0.00000000E+00
  0.00000000E+00  0.00000000E+00  0.00000000E+00
  0.00000000E+00  0.00000000E+00  0.00000000E+00
