InPd2                                   
1.0
 +8.3929004669  +0.0000000000  +0.0000000000 
 +0.0039962028 +11.4501993836  +0.0000000000 
 +0.0000000000  +0.0000000000 +16.3584995270 
In Pd
 16 32
Direct
 +0.5000000000  +0.0553749985  +0.0000000000 
 +0.5006978441  +0.0562105733  +0.2589182749 
 +0.0000000000  +0.1270750015  +0.1295700070 
 -0.0130732646  +0.1348332293  +0.3947235877 
 +0.7987999920  +0.3052250145  +0.0000000000 
 +0.7977987485  +0.3061566635  +0.2589447989 
 +0.2985000010  +0.3772250115  +0.1295700070 
 +0.3124951806  +0.3849167615  +0.3946865093 
 +0.5000000000  +0.5553749985  +0.0000000000 
 +0.5006978441  +0.5562105733  +0.2589182749 
 +0.0000000000  +0.6270750015  +0.1295700070 
 -0.0130732646  +0.6348332293  +0.3947235877 
 +0.7987999920  +0.8052250145  +0.0000000000 
 +0.7977987485  +0.8061566635  +0.2589447989 
 +0.2985000010  +0.8772250115  +0.1295700070 
 +0.3124951806  +0.8849167615  +0.3946865093 
 +0.1289073473  +0.2493215195  +0.2595608539 
 +0.1289073473  +0.7493215195  +0.2595608539 
 +0.1298000070  +0.2500250040  +0.0000000000 
 +0.1298000070  +0.7500250040  +0.0000000000 
 +0.1691000010  +0.4999749960  +0.0000000000 
 +0.1691000010  +0.9999749960  +0.0000000000 
 +0.1692650284  +0.4992904113  +0.2596392417 
 +0.1692650284  +0.9992904113  +0.2596392417 
 +0.3160806649  +0.1409609557  +0.3826451325 
 +0.3160806649  +0.6409609557  +0.3826451325 
 +0.3271000090  +0.1375750005  +0.1295700070 
 +0.3271000090  +0.6375750005  +0.1295700070 
 +0.4677850618  +0.2961652481  +0.2589802563 
 +0.4677850618  +0.7961652481  +0.2589802563 
 +0.4717000130  +0.2950249910  +0.0000000000 
 +0.4717000130  +0.7950249910  +0.0000000000 
 +0.6294999720  +0.4322249890  +0.1295700070 
 +0.6294999720  +0.9322249890  +0.1295700070 
 +0.6364046316  +0.4347584487  +0.3821806534 
 +0.6364046316  +0.9347584487  +0.3821806534 
 +0.6628578670  +0.1846149106  +0.3821898155 
 +0.6628578670  +0.6846149106  +0.3821898155 
 +0.6690000300  +0.1823749990  +0.1295700070 
 +0.6690000300  +0.6823749990  +0.1295700070 
 +0.8270000220  +0.0448749995  +0.0000000000 
 +0.8270000220  +0.5448749995  +0.0000000000 
 +0.8308274183  +0.0462599408  +0.2591317000 
 +0.8308274183  +0.5462599408  +0.2591317000 
 +0.9715999960  +0.3874250055  +0.1295700070 
 +0.9715999960  +0.8874250055  +0.1295700070 
 +0.9834668665  +0.3908474485  +0.3826825823 
 +0.9834668665  +0.8908474485  +0.3826825823 
