Indium palladium (1/2)
1.0
 +5.6167597771  +0.0000000000  +0.0000000000 
 +0.0000000000  +4.2171001434  +0.0000000000 
 +0.0000000000  +0.0000000000  +8.2278003693 
In Pd
 4 8
Selective
Direct
 +0.8222000000  +0.2500000000  +0.3989000020  F F F
 +0.1778000000  +0.7500000000  +0.6010999680  T T T
 +0.6778000000  +0.7500000000  +0.8989000320  T T T
 +0.3222000000  +0.2500000000  +0.1010999980  T T T
 +0.8399999740  +0.2500000000  +0.0723000020  T T T
 +0.1600000260  +0.7500000000  +0.9276999830  T T T
 +0.6600000260  +0.7500000000  +0.5723000170  T T T
 +0.3399999740  +0.2500000000  +0.4276999830  T T T
 +0.9329000120  +0.2500000000  +0.7318000200  T T T
 +0.0670999880  +0.7500000000  +0.2681999800  T T T
 +0.5670999880  +0.7500000000  +0.2318000200  T T T
 +0.4329000120  +0.2500000000  +0.7681999800  T T T
