InPd2                                   
   1.00000000000000     
     8.4779996872000005    0.0000000000000000    0.0000000000000000
     0.0000000000000000    8.3929004669000005    0.0000000000000000
     0.0000000000000000    0.0000000000000000   14.9492998122999996
   In   Pd
     8    16
Selective dynamics
Direct
  0.3750000000353850  0.6001999974700780  0.0424299985259609   F   F   F
  0.1250000000117950  0.1002399995469929  0.0973500013560908   F   F   F
  0.3750000000353850  0.8936177107616038  0.2449912735617232   T   T   T
  0.1250000000117950  0.3979310583687035  0.2918330725619473   T   T   T
  0.8750000000353850  0.6001999974700780  0.0424299985259609   F   F   F
  0.6250000000117950  0.1002399995469929  0.0973500013560908   F   F   F
  0.8750000000353850  0.8936177107616038  0.2449912735617232   T   T   T
  0.6250000000117950  0.3979310583687035  0.2918330725619473   T   T   T
  0.3750000000353850  0.2692799865687903  0.0000000000000000   F   F   F
  0.3750000000353850  0.9272000193127923  0.0343899987594725   F   F   F
  0.1250000000117950  0.4273400008906307  0.1053899973765766   F   F   F
  0.1250000000117950  0.7692599892566960  0.1397099941952860   F   F   F
  0.3750000000353850  0.2388699347322226  0.1932926207669192   T   T   T
  0.3750000000353850  0.5695825929210837  0.2252010835634887   T   T   T
  0.1250000000117950  0.0741713390911100  0.2825541134713698   T   T   T
  0.1250000000117950  0.7241156816393630  0.3198447316894566   T   T   T
  0.8750000000353850  0.2692799865687903  0.0000000000000000   F   F   F
  0.8750000000353850  0.9272000193127923  0.0343899987594725   F   F   F
  0.6250000000117950  0.4273400008906307  0.1053899973765766   F   F   F
  0.6250000000117950  0.7692599892566960  0.1397099941952860   F   F   F
  0.8750000000353850  0.2388699347322226  0.1932926207669192   T   T   T
  0.8750000000353850  0.5695825929210837  0.2252010835634887   T   T   T
  0.6250000000117950  0.0741713390911100  0.2825541134713698   T   T   T
  0.6250000000117950  0.7241156816393630  0.3198447316894566   T   T   T
 
  0.00000000E+00  0.00000000E+00  0.00000000E+00
  0.00000000E+00  0.00000000E+00  0.00000000E+00
  0.00000000E+00  0.00000000E+00  0.00000000E+00
  0.00000000E+00  0.00000000E+00  0.00000000E+00
  0.00000000E+00  0.00000000E+00  0.00000000E+00
  0.00000000E+00  0.00000000E+00  0.00000000E+00
  0.00000000E+00  0.00000000E+00  0.00000000E+00
  0.00000000E+00  0.00000000E+00  0.00000000E+00
  0.00000000E+00  0.00000000E+00  0.00000000E+00
  0.00000000E+00  0.00000000E+00  0.00000000E+00
  0.00000000E+00  0.00000000E+00  0.00000000E+00
  0.00000000E+00  0.00000000E+00  0.00000000E+00
  0.00000000E+00  0.00000000E+00  0.00000000E+00
  0.00000000E+00  0.00000000E+00  0.00000000E+00
  0.00000000E+00  0.00000000E+00  0.00000000E+00
  0.00000000E+00  0.00000000E+00  0.00000000E+00
  0.00000000E+00  0.00000000E+00  0.00000000E+00
  0.00000000E+00  0.00000000E+00  0.00000000E+00
  0.00000000E+00  0.00000000E+00  0.00000000E+00
  0.00000000E+00  0.00000000E+00  0.00000000E+00
  0.00000000E+00  0.00000000E+00  0.00000000E+00
  0.00000000E+00  0.00000000E+00  0.00000000E+00
  0.00000000E+00  0.00000000E+00  0.00000000E+00
  0.00000000E+00  0.00000000E+00  0.00000000E+00
