InPd2                                   
   1.00000000000000     
     8.3929004669000005    0.0000000000000000    0.0000000000000000
     0.0039962028000000   11.4501993835999993    0.0000000000000000
     0.0000000000000000    0.0000000000000000   16.3584995269999993
   In   Pd
    16    32
Selective dynamics
Direct
  0.5000000000030909  0.0553749985007386  0.0000000000000000   F   F   F
  0.7987999920030830  0.3052250145011186  0.0000000000000000   F   F   F
  0.0000000000027640  0.1270750014959603  0.1295700069985983   F   F   F
  0.2985000009988354  0.3772250115038602  0.1295700069985983   F   F   F
  0.5006978440788838  0.0562105733281340  0.2589182749145238   T   T   T
  0.7977987484886341  0.3061566634972265  0.2589447989070131   T   T   T
 -0.0130732645824607  0.1348332292679891  0.3947235877007823   T   T   T
  0.3124951806087684  0.3849167615209629  0.3946865092492775   T   T   T
  0.5000000000030909  0.5553749985007386  0.0000000000000000   F   F   F
  0.7987999920030830  0.8052250145011186  0.0000000000000000   F   F   F
  0.0000000000027640  0.6270750014959603  0.1295700069985983   F   F   F
  0.2985000009988354  0.8772250115038602  0.1295700069985983   F   F   F
  0.5006978440788838  0.5562105733281463  0.2589182749145238   T   T   T
  0.7977987484886341  0.8061566634972438  0.2589447989070131   T   T   T
 -0.0130732645824607  0.6348332292679925  0.3947235877007823   T   T   T
  0.3124951806087684  0.8849167615209746  0.3946865092492775   T   T   T
  0.1298000070029772  0.2500250040012730  0.0000000000000000   F   F   F
  0.1691000009970622  0.4999749959987270  0.0000000000000000   F   F   F
  0.4717000129952851  0.2950249910004530  0.0000000000000000   F   F   F
  0.8270000220037232  0.0448749994987807  0.0000000000000000   F   F   F
  0.3271000090046101  0.1375750004979182  0.1295700069985983   F   F   F
  0.6294999719971912  0.4322249889978735  0.1295700069985983   F   F   F
  0.6690000299970507  0.1823749989970409  0.1295700069985983   F   F   F
  0.9715999960047412  0.3874250055028554  0.1295700069985983   F   F   F
  0.1289073473475683  0.2493215195286355  0.2595608538647724   T   T   T
  0.1692650284272751  0.4992904113303256  0.2596392417355771   T   T   T
  0.4677850618337510  0.2961652480683777  0.2589802562809290   T   T   T
  0.8308274183427199  0.0462599407983886  0.2591316999603317   T   T   T
  0.3160806649142451  0.1409609557242635  0.3826451324953564   T   T   T
  0.6364046316289862  0.4347584486893508  0.3821806534461020   T   T   T
  0.6628578669684995  0.1846149105760863  0.3821898155067592   T   T   T
  0.9834668664647350  0.3908474484974124  0.3826825823124389   T   T   T
  0.1298000070029772  0.7500250040012730  0.0000000000000000   F   F   F
  0.1691000009970622  0.9999749959987270  0.0000000000000000   F   F   F
  0.4717000129952851  0.7950249910004530  0.0000000000000000   F   F   F
  0.8270000220037232  0.5448749994987807  0.0000000000000000   F   F   F
  0.3271000090046101  0.6375750004979182  0.1295700069985983   F   F   F
  0.6294999719971912  0.9322249889978735  0.1295700069985983   F   F   F
  0.6690000299970507  0.6823749989970409  0.1295700069985983   F   F   F
  0.9715999960047412  0.8874250055028554  0.1295700069985983   F   F   F
  0.1289073473475683  0.7493215195286195  0.2595608538647724   T   T   T
  0.1692650284272751  0.9992904113303365  0.2596392417355771   T   T   T
  0.4677850618337510  0.7961652480683833  0.2589802562809290   T   T   T
  0.8308274183427199  0.5462599407983861  0.2591316999603317   T   T   T
  0.3160806649142451  0.6409609557242676  0.3826451324953564   T   T   T
  0.6364046316289862  0.9347584486893611  0.3821806534461020   T   T   T
  0.6628578669684995  0.6846149105760957  0.3821898155067592   T   T   T
  0.9834668664647350  0.8908474484974243  0.3826825823124389   T   T   T
