InPd2
1.0
 +8.3929004669  +0.0000000000  +0.0000000000 
 +0.0039962028 +11.4501993836  +0.0000000000 
 +0.0000000000  +0.0000000000 +16.3584995270 
In Pd
 16 32
Selective
Cartesian
 +4.1966715232  +0.6340547737  +0.0000000000  F F F
 +6.7054685669  +3.4948872729  +0.0000000000  F F F
 +0.0005078175  +1.4550341038  +2.1195708982  F F F
 +2.5067882654  +4.3193015942  +2.1195708982  F F F
 +4.1966715232  +0.6340547737  +4.2389779988  T T T
 +6.7054685669  +3.4948872729  +4.2389779988  T T T
 +0.0005078175  +1.4550341038  +6.3585488970  T T T
 +2.5067882654  +4.3193015942  +6.3585488970  T T T
 +4.1986696246  +6.3591544655  +0.0000000000  F F F
 +6.7074666683  +9.2199869647  +0.0000000000  F F F
 +0.0025059189  +7.1801337956  +2.1195708982  F F F
 +2.5087863668 +10.0444012860  +2.1195708982  F F F
 +4.1986696246  +6.3591544655  +4.2389779988  T T T
 +6.7074666683  +9.2199869647  +4.2389779988  T T T
 +0.0025059189  +7.1801337956  +6.3585488970  T T T
 +2.5087863668 +10.0444012860  +6.3585488970  T T T
 +1.0903976900  +2.8628361467  +0.0000000000  F F F
 +1.4212374788  +5.7248133910  +0.0000000000  F F F
 +3.9601102390  +3.3780949701  +0.0000000000  F F F
 +6.9411082004  +0.5138276916  +0.0000000000  F F F
 +2.7458675959  +1.5752611859  +2.1195708982  F F F
 +5.2850578676  +4.9490623026  +2.1195708982  F F F
 +5.6155794716  +2.0882301011  +2.1195708982  F F F
 +8.1560902890  +4.4360935592  +2.1195708982  F F F
 +1.0903976900  +2.8628361467  +4.2389779988  T T T
 +1.4212374788  +5.7248133910  +4.2389779988  T T T
 +3.9601102390  +3.3780949701  +4.2389779988  T T T
 +6.9411082004  +0.5138276916  +4.2389779988  T T T
 +2.7458675959  +1.5752611859  +6.3585488970  T T T
 +5.2850578676  +4.9490623026  +6.3585488970  T T T
 +5.6155794716  +2.0882301011  +6.3585488970  T T T
 +8.1560902890  +4.4360935592  +6.3585488970  T T T
 +1.0923957914  +8.5879358385  +0.0000000000  F F F
 +1.4232355802 +11.4499130828  +0.0000000000  F F F
 +3.9621083404  +9.1031946619  +0.0000000000  F F F
 +6.9431063018  +6.2389273834  +0.0000000000  F F F
 +2.7478656973  +7.3003608777  +2.1195708982  F F F
 +5.2870559690 +10.6741619944  +2.1195708982  F F F
 +5.6175775730  +7.8133297929  +2.1195708982  F F F
 +8.1580883904 +10.1611932510  +2.1195708982  F F F
 +1.0923957914  +8.5879358385  +4.2389779988  T T T
 +1.4232355802 +11.4499130828  +4.2389779988  T T T
 +3.9621083404  +9.1031946619  +4.2389779988  T T T
 +6.9431063018  +6.2389273834  +4.2389779988  T T T
 +2.7478656973  +7.3003608777  +6.3585488970  T T T
 +5.2870559690 +10.6741619944  +6.3585488970  T T T
 +5.6175775730  +7.8133297929  +6.3585488970  T T T
 +8.1580883904 +10.1611932510  +6.3585488970  T T T
