Indium palladium (1/2)                  
   1.00000000000000     
     5.7250912870070785    0.0000000000000000    0.0011673943152462
     0.0000000000000000    4.2390172752642705    0.0000000000000000
     0.0017107225986034    0.0000000000000000    8.3929005981954745
   In   Pd
     4     8
Selective dynamics
Direct
  0.8222000000000023  0.2500000000000000  0.3989000019999978   F   F   F
  0.1785340664143544  0.7500000000000000  0.6003681670259107   T   T   T
  0.6782288355496356  0.7500000000000000  0.8992440215392188   T   T   T
  0.3219082945044712  0.2500000000000000  0.1004395482607764   T   T   T
  0.8425910859331858  0.2500000000000000  0.0719578573326244   T   T   T
  0.1574595087334345  0.7500000000000000  0.9273562254576629   T   T   T
  0.6577565493359272  0.7500000000000000  0.5721419210334302   T   T   T
  0.3428863747371348  0.2500000000000000  0.4274754034519679   T   T   T
  0.9322290309834005  0.2500000000000000  0.7299195628123191   T   T   T
  0.0676888784914553  0.7500000000000000  0.2694632069747924   T   T   T
  0.5677637420938577  0.7500000000000000  0.2302496522617989   T   T   T
  0.4325229464498546  0.2500000000000000  0.7694490187890577   T   T   T
 
  0.00000000E+00  0.00000000E+00  0.00000000E+00
  0.00000000E+00  0.00000000E+00  0.00000000E+00
  0.00000000E+00  0.00000000E+00  0.00000000E+00
  0.00000000E+00  0.00000000E+00  0.00000000E+00
  0.00000000E+00  0.00000000E+00  0.00000000E+00
  0.00000000E+00  0.00000000E+00  0.00000000E+00
  0.00000000E+00  0.00000000E+00  0.00000000E+00
  0.00000000E+00  0.00000000E+00  0.00000000E+00
  0.00000000E+00  0.00000000E+00  0.00000000E+00
  0.00000000E+00  0.00000000E+00  0.00000000E+00
  0.00000000E+00  0.00000000E+00  0.00000000E+00
  0.00000000E+00  0.00000000E+00  0.00000000E+00
